c Sudoku solution
p cnf 729 0
129 0
132 0
143 0
258 0
271 0
411 0
437 0
454 0
586 0
595 0
618 0
726 0
636 0
745 0
762 0
814 0
877 0
949 0
964 0
383 0
161 0
553 0
541 0
567 0
642 0
578 0
352 0
863 0
848 0
446 0
468 0
425 0
623 0
659 0
665 0
674 0
155 0
266 0
369 0
176 0
117 0
316 0
224 0
247 0
344 0
397 0
757 0
927 0
522 0
519 0
534 0
912 0
821 0
856 0
951 0
215 0
233 0
375 0
713 0
328 0
331 0
472 0
489 0
493 0
973 0
996 0
779 0
892 0
885 0
988 0
738 0
935 0
839 0
282 0
299 0
687 0
691 0
781 0
794 0
184 0
198 0
